(set-info :source  loris-7.ddns.comp.nus.edu.sg/~project/hip/) 
;Variables declarations
(declare-fun r_10681 () Int)
(declare-fun l_10677 () Int)
(declare-fun v_10676 () Int)
(declare-fun v_int_144_10658 () Int)
(declare-fun color_primed () Int)
(declare-fun color () Int)
(declare-fun c_primed () Int)
(declare-fun b_primed () Int)
(declare-fun a_primed () Int)
(declare-fun a () Int)
(declare-fun ha () Int)
(declare-fun na () Int)
(declare-fun flted_137_9879 () Int)
(declare-fun color_144_9880 () Int)
(declare-fun flted_12_9868 () Int)
(declare-fun v_int_145_10659 () Int)
(declare-fun v_int_145_10660 () Int)
(declare-fun v_int_147_10661 () Int)
(declare-fun res () Int)
(declare-fun v_node_147_4593_primed () Int)
(declare-fun v_10774 () Int)
(declare-fun v_9869 () Int)
(declare-fun l_10775 () Int)
(declare-fun l_9870 () Int)
(declare-fun r_10779 () Int)
(declare-fun r_9873 () Int)
(declare-fun nl_9871 () Int)
(declare-fun Anon_10777 () Int)
(declare-fun flted_12_9867 () Int)
(declare-fun bhl_9872 () Int)
(declare-fun nr_9874 () Int)
(declare-fun Anon_10781 () Int)
(declare-fun flted_12_9866 () Int)
(declare-fun bhr_9875 () Int)
(declare-fun bhr_10782 () Int)
(declare-fun bhl_10680 () Int)
(declare-fun bhl_10778 () Int)
(declare-fun nl_10678 () Int)
(declare-fun nr_10780 () Int)
(declare-fun nl_10776 () Int)
(declare-fun Anon_10679 () Int)
(declare-fun Anon_20 () Int)
(declare-fun ha_9876 () Int)
(declare-fun nb () Int)
(declare-fun b () Int)
(declare-fun flted_137_9878 () Int)
(declare-fun ha_9877 () Int)
(declare-fun nc () Int)
(declare-fun c () Int)
(declare-fun tmp_10662 () Int)
;Relations declarations
;Axioms assertions
;Antecedent
(assert (= r_10681 tmp_10662))
(assert (= l_10677 a_primed))
(assert (= v_10676 v_int_147_10661))
(assert (= v_int_144_10658 0))
(assert (= ha_9877 ha))
(assert (= ha_9876 ha))
(assert (= color 1))
(assert (= flted_137_9878 0))
(assert (= color_primed color))
(assert (= c_primed c))
(assert (= b_primed b))
(assert (= a_primed a))
(assert (= bhr_9875 ha))
(assert (= bhl_9872 ha))
(assert (= na (+ (+ nr_9874 1) nl_9871)))
(assert (= flted_137_9879 1))
(assert (= flted_12_9866 0))
(assert (= flted_12_9867 0))
(assert (= flted_12_9868 1))
(assert (= color_144_9880 flted_12_9868))
(assert (= v_int_145_10659 0))
(assert (= v_int_145_10660 0))
(assert (= v_int_147_10661 0))
(assert (= res v_node_147_4593_primed))
(assert (= v_10774 v_9869))
(assert (= l_10775 l_9870))
(assert (= r_10779 r_9873))
(assert (= nl_10776 nl_9871))
(assert (= Anon_10777 flted_12_9867))
(assert (= bhl_10778 bhl_9872))
(assert (= nr_10780 nr_9874))
(assert (= Anon_10781 flted_12_9866))
(assert (= bhr_10782 bhr_9875))
(assert (= bhl_10778 bhr_10782))
(assert (= bhl_10680 (+ bhl_10778 1)))
(assert (= nl_10678 (+ (+ nr_10780 1) nl_10776)))
(assert (= Anon_10679 0))
(assert (or (and (and (and (= Anon_20 0) (<= 2 ha_9876)) (<= 1 nb)) (> b 0)) (or (and (and (and (< b 1) (= nb 0)) (= ha_9876 1)) (= Anon_20 0)) (and (and (and (= Anon_20 1) (<= 1 ha_9876)) (<= 1 nb)) (> b 0)))))
(assert (or (and (and (and (= flted_137_9878 0) (<= 2 ha_9877)) (<= 1 nc)) (> c 0)) (or (and (and (and (< c 1) (= nc 0)) (= ha_9877 1)) (= flted_137_9878 0)) (and (and (and (= flted_137_9878 1) (<= 1 ha_9877)) (<= 1 nc)) (> c 0)))))
(assert (= tmp_10662 1))
;Negation of Consequence
(assert (not false))
(check-sat)